problems/VanDerWaerdenNumbers/VanDerWaerden-models/noch/O2/lingeling/model_4-k3l4n66-solution000001.solution
language Essence 1.3

letting p be
        partition({1, 3, 6, 11, 15, 17, 18, 23, 24, 26, 27, 28, 34, 37, 38, 43, 44, 45, 49, 51, 53, 64},
                  {2, 8, 12, 13, 14, 16, 22, 25, 30, 31, 33, 35, 39, 41, 42, 52, 56, 57, 58, 61, 65, 66},
                  {4, 5, 7, 9, 10, 19, 20, 21, 29, 32, 36, 40, 46, 47, 48, 50, 54, 55, 59, 60, 62, 63})
